\ENCODING=ISO-8859-1
\Problem name: timtab1CUTS.mps

Maximize
 obj: -1001 x1               + 0 x2               + 0 x3               -1000 x4               -1001 x5               + 0 x6               -1000 x7               -1001 x8               + 0 x9               + 0 x10              + 0 x11              -1387 x12              + 0 x13              -245 x14              -437 x15              -500 x16              -500 x17              -725 x18              + 0 x19              + 0 x20              + 0 x21              -2002 x22              + 0 x23              + 0 x24              -291 x25              + 0 x26              -331 x27              -481 x28              -341 x29              -650 x30              -520 x31              -1000 x32              + 0 x33              + 0 x34              + 0 x35              + 0 x36              + 0 x37              + 0 x38              -250 x39              -1001 x40              -227 x41              -338 x42              + 0 x43              -954 x44              + 0 x45              + 0 x46              -2002 x47              + 0 x48              + 0 x49              -333.33333333 x50              -333.33333333 x51              -666.66666667 x52              -666.66666667 x53              -333.33333333 x54              -333.33333333 x55              + 0 x56              -1001 x57              + 0 x58              -1001 x59              + 0 x60              + 0 x61              -823 x62              -440 x63              -1000 x64              -1000 x65              -371 x66              -1001 x67              -1001 x68              + 0 x69              + 0 x70              -1001 x71              -231 x72              + 0 x73              + 0 x74              -470 x75              -520 x76              -235 x77              -295 x78              -650 x79              -500 x80              -500 x81              + 0 x82              + 0 x83              + 0 x84              -474 x85              -909 x86              -283 x87              -384 x88              -1001 x89              + 0 x90              -1100 x91              -490 x92              -464 x93              -1000 x94              + 0 x95              + 0 x96              + 0 x97              + 0 x98              + 0 x99              + 0 x100             + 0 x101             + 0 x102             -1000 x103             -287 x104             + 0 x105             + 0 x106             -1001 x107             -1001 x108             + 0 x109             -520 x110             -1100 x111             -500 x112             -500 x113             + 0 x114             -1001 x115             + 0 x116             + 0 x117             -337 x118             -312 x119             + 0 x120             + 0 x121             + 0 x122             -1001 x123             -500 x124             + 0 x125             -500 x126             -500 x127             + 0 x128             -1001 x129             -1001 x130             -500 x131             -1001 x132             + 0 x133             -1001 x134             + 0 x135             -366 x136             -489 x137             -1000 x138             + 0 x139             -906 x140             -1001 x141             -1001 x142             + 0 x143             -1000 x144             -1001 x145             -1001 x146             -232 x147             + 0 x148             + 0 x149             + 0 x150             + 0 x151             -293 x152             -703 x153             -1001 x154             -499 x155             + 0 x156             -1001 x157             -580 x158             -247 x159             + 0 x160             + 0 x161             -600 x162             -520 x163             + 0 x164             -1001 x165             + 0 x166             -1001 x167             + 0 x168             + 0 x169             -1001 x170             + 0 x171             -1001 x172             -476 x173             -1000 x174             + 0 x175             -500 x176             -500 x177             + 0 x178             -500 x179             -261 x180             + 0 x181             + 0 x182             + 0 x183             -1001 x184             + 0 x185             + 0 x186             -1000 x187             -1001 x188             + 0 x189             -500 x190             -1001 x191             -1001 x192             -540 x193             -431 x194             + 0 x195             -1001 x196             -328 x197             -520 x198             + 0 x199             + 0 x200             + 0 x201             + 0 x202             -600 x203             + 0 x204             + 0 x205             -333.33333333 x206             -1001 x207             + 0 x208             + 0 x209             + 0 x210             + 0 x211             -2002 x212             -1001 x213             -1001 x214             + 0 x215             -500 x216             -500 x217             + 0 x218             + 0 x219             + 0 x220             + 0 x221             -719 x222             + 0 x223             + 0 x224             + 0 x225             -1001 x226             + 0 x227             + 0 x228             + 0 x229             + 0 x230             + 0 x231             + 0 x232             + 0 x233             + 0 x234             + 0 x235             + 0 x236             + 0 x237             + 0 x238             + 0 x239             + 0 x240             + 0 x241             + 0 x242             + 0 x243             + 0 x244             + 0 x245             + 0 x246             + 0 x247             + 0 x248             + 0 x249             + 0 x250             + 0 x251             + 0 x252             + 0 x253             + 0 x254             + 0 x255             + 0 x256             + 0 x257             + 0 x258             + 0 x259             + 0 x260             + 0 x261             + 0 x262             + 0 x263             + 0 x264             + 0 x265             + 0 x266             + 0 x267             + 0 x268             + 0 x269             + 0 x270             + 0 x271             + 0 x272             + 0 x273             + 0 x274             + 0 x275             + 0 x276             + 0 x277             + 0 x278             + 0 x279             + 0 x280             + 0 x281             + 0 x282             + 0 x283             + 0 x284             + 0 x285             + 0 x286             + 0 x287             + 0 x288             + 0 x289             + 0 x290             + 0 x291             + 0 x292             + 0 x293             + 0 x294             + 0 x295             + 0 x296             + 0 x297             + 0 x298             + 0 x299             + 0 x300             + 0 x301             + 0 x302             + 0 x303             + 0 x304             + 0 x305             + 0 x306             + 0 x307             + 0 x308             + 0 x309             + 0 x310             + 0 x311             + 0 x312             + 0 x313             + 0 x314             + 0 x315             + 0 x316             + 0 x317             + 0 x318             + 0 x319             + 0 x320             + 0 x321             + 0 x322             + 0 x323             + 0 x324             + 0 x325             + 0 x326             + 0 x327             + 0 x328             + 0 x329             + 0 x330             + 0 x331             + 0 x332             + 0 x333             + 0 x334             + 0 x335             + 0 x336             + 0 x337             + 0 x338             + 0 x339             + 0 x340             + 0 x341             + 0 x342             + 0 x343             + 0 x344             + 0 x345             + 0 x346             + 0 x347             + 0 x348             + 0 x349             + 0 x350             + 0 x351             + 0 x352             + 0 x353             + 0 x354             + 0 x355             + 0 x356             + 0 x357             + 0 x358             + 0 x359             + 0 x360             + 0 x361             + 0 x362             + 0 x363             + 0 x364             + 0 x365             + 0 x366             + 0 x367             + 0 x368             + 0 x369             + 0 x370             + 0 x371             + 0 x372             + 0 x373             + 0 x374             + 0 x375             + 0 x376             + 0 x377             + 0 x378             + 0 x379             + 0 x380             + 0 x381             + 0 x382             + 0 x383             + 0 x384             + 0 x385             + 0 x386             + 0 x387             + 0 x388             + 0 x389             + 0 x390             + 0 x391             + 0 x392             + 0 x393             + 0 x394             + 0 x395             + 0 x396             + 0 x397
Subject To
 c1:   x1 + x4 + x5 + x14 + x22 + x34 - x159 + x160 - 60 x227  = -35
 c2:   - x2 + x3 - 60 x228  = -1
 c3:   - x2 - x4 - x6 + x7 - 60 x229  = -115
 c4:   - x5 + x6 + x8 + x12 - x14 - 60 x230  = -24
 c5:   x9 + x12 - x14 - 60 x231  = -31
 c6:   x10 - x12 - x22 - x34 + x192 - x193 - 60 x232  = -91
 c7:   x11 - x12 - x22 - x34 + x192 - x194 - 60 x233  = -80
 c8:   x13 + x22 - x29 - 60 x234  = 0
 c9:   x17 + x22 + x32 + x212 - 60 x235  = 2
 c10:  - x15 + x18 - 60 x236  = -30
 c11:  - x19 + x20 - 60 x237  = -30
 c12:  x21 - x22 + x29 - 60 x238  = 22
 c13:  x24 + x37 - 60 x239  = 24
 c14:  - x23 + x25 - 60 x240  = -1
 c15:  - x23 + x26 - 60 x241  = -30
 c16:  - x23 + x27 - 60 x242  = -31
 c17:  - x28 + x30 - 60 x243  = -30
 c18:  - x29 + x31 - 60 x244  = -30
 c19:  - x34 + x36 - 60 x245  = -30
 c20:  - x33 + x38 - 60 x246  = -30
 c21:  - x33 + x39 - 60 x247  = -31
 c22:  - x41 + x42 - 60 x248  = -1
 c23:  - x41 + x43 - 60 x249  = -30
 c24:  - x41 + x44 - 60 x250  = -31
 c25:  x32 - x41 + x45 - x54 - x62 - 60 x251  = -122
 c26:  x32 - x41 + x46 - x54 - x62 - 60 x252  = -152
 c27:  x34 - x41 + x47 - 60 x253  = 0
 c28:  x40 - x41 + x48 - 60 x254  = 1
 c29:  x40 - x41 + x49 - 60 x255  = -29
 c30:  - x32 + x41 + x50 - x56 + x62 - 60 x256  = -59
 c31:  - x32 + x41 + x51 - x56 + x62 - 60 x257  = -89
 c32:  - x32 + x41 + x52 + x62 - 60 x258  = -2.84217e-14
 c33:  - x32 + x41 + x53 + x62 - 60 x259  = -30
 c34:  - x54 + x55 - 60 x260  = -30
 c35:  x57 - x62 + x205 - 60 x261  = 0
 c36:  - x56 + x58 - 60 x262  = -30
 c37:  x59 - x62 + x202 - 60 x263  = -30
 c38:  x60 - x62 + x67 - 60 x264  = 1
 c39:  x61 - x62 + x67 - 60 x265  = -29
 c40:  - x62 + x63 - 60 x266  = -30
 c41:  - x32 + x40 + x64 + x67 - 60 x267  = -14
 c42:  - x32 + x40 + x65 + x67 - 60 x268  = -44
 c43:  x66 - x67 + x202 - 60 x269  = -6
 c44:  - x67 + x68 + x74 - 60 x270  = 27
 c45:  x69 + x74 - x205 - 60 x271  = -3
 c46:  x70 + x74 - x202 - 60 x272  = -3
 c47:  x32 - x34 + x71 - x74 + x174 - x175 + x192 - 60 x273  = -156
 c48:  x72 - x74 - x77 + x205 - 60 x274  = -60
 c49:  x32 - x33 + x73 - x74 - 60 x275  = -68
 c50:  x32 - x34 - x74 + x75 + x192 - x193 - 60 x276  = -134
 c51:  - x74 + x76 - x77 + x205 - 60 x277  = -59
 c52:  - x77 + x78 - x202 + x205 - 60 x278  = -60
 c53:  - x23 - x32 - x77 + x79 + x205 - 60 x279  = -167
 c54:  - x32 + x34 - x77 + x80 - x151 + x205 - 60 x280  = -145
 c55:  - x32 + x37 - x77 + x81 + x205 - 60 x281  = -108
 c56:  - x77 + x82 + x135 + x205 - 60 x282  = -45
 c57:  - x77 + x83 + x109 + x205 - 60 x283  = -45
 c58:  - x77 + x84 - x97 + x205 - 60 x284  = -99
 c59:  - x77 + x85 - 60 x285  = -59
 c60:  - x77 + x86 - x202 + x205 - 60 x286  = -59
 c61:  - x32 + x33 - x77 + x87 + x205 - 60 x287  = -116
 c62:  x32 - x34 + x77 + x88 + x192 - x193 - x205 - 60 x288  = -138
 c63:  x32 - x34 + x77 + x89 + x192 - x194 - x205 - 60 x289  = -136
 c64:  - x23 - x32 + x90 + x97 - 60 x290  = -73
 c65:  - x32 + x34 + x91 + x97 - 60 x291  = -27
 c66:  - x32 + x34 + x92 + x97 - 60 x292  = -57
 c67:  - x32 + x35 + x93 + x97 - 60 x293  = -57
 c68:  - x32 + x33 + x94 + x97 - 60 x294  = -56
 c69:  - x32 + x34 + x96 + x97 - x151 - 60 x295  = -87
 c70:  x32 - x37 - x97 + x98 - 60 x296  = -78
 c71:  x32 - x34 - x97 + x99 - 60 x297  = -98
 c72:  x32 - x34 - x97 + x100 - 60 x298  = -68
 c73:  x32 - x33 - x97 + x101 - 60 x299  = -49
 c74:  x32 - x35 - x97 + x102 - 60 x300  = -68
 c75:  x32 - x33 - x97 + x103 - 60 x301  = -86
 c76:  - x97 + x104 - 60 x302  = -30
 c77:  - x97 + x105 - x135 - 60 x303  = -57
 c78:  - x97 + x106 - x109 - 60 x304  = -57
 c79:  - x19 - x22 - x32 + x95 + x97 + x107 - 60 x305  = -99
 c80:  x54 + x62 - x95 - x97 + x108 - 60 x306  = -88
 c81:  - x109 + x110 - 60 x307  = -1
 c82:  - x109 + x111 - 60 x308  = -30
 c83:  - x32 + x34 - x109 + x112 - x151 - 60 x309  = -163
 c84:  - x32 + x37 - x109 + x113 - 60 x310  = -66
 c85:  x109 + x114 - 60 x311  = 24
 c86:  x109 + x115 - x119 - x212 - 60 x312  = 0
 c87:  x32 - x33 + x109 + x116 - 60 x313  = -54
 c88:  x109 + x117 - x135 - 60 x314  = -3
 c89:  x16 + x22 + x32 + x119 + x120 + x212 - 60 x315  = 55
 c90:  x119 + x121 - 60 x316  = 23
 c91:  x29 + x32 + x119 + x122 + x212 - 60 x317  = 39
 c92:  x15 + x22 + x32 + x119 + x123 + x124 + x212 - 60 x318  = 29
 c93:  - x124 + x125 + x131 - 60 x319  = -3
 c94:  - x124 + x126 - x128 - 60 x320  = -63
 c95:  x127 - x128 - x131 - 60 x321  = -57
 c96:  - x15 - x22 + x29 + x128 + x129 - 60 x322  = -6
 c97:  x15 + x22 + x34 + x130 + x131 - x192 + x194 - 60 x323  = 54
 c98:  x56 - x62 + x118 - x119 + x132 - x212 - 60 x324  = -101
 c99:  - x32 + x33 + x118 - x119 + x133 - x212 - 60 x325  = -102
 c100: x16 + x22 + x32 - x118 + x119 + x134 + x212 - 60 x326  = -58
 c101: - x135 + x136 - 60 x327  = -1
 c102: - x32 + x34 - x135 + x137 - x151 - 60 x328  = -138
 c103: - x23 - x32 - x135 + x138 - 60 x329  = -150
 c104: - x32 + x33 - x135 + x139 - 60 x330  = -72
 c105: - x135 + x140 - 60 x331  = -30
 c106: x28 + x32 + x135 + x141 + x143 - 60 x332  = 2
 c107: x142 - x143 + x144 + x145 - 60 x333  = -22
 c108: x146 + x151 - x197 - 60 x334  = -1
 c109: x147 + x151 - x159 - 60 x335  = -3
 c110: x23 + x34 + x148 - x151 - 60 x336  = -16
 c111: x34 - x37 + x149 - x151 - 60 x337  = -100
 c112: - x33 + x34 + x150 - x151 - 60 x338  = -71
 c113: x34 - x35 - x151 + x152 - 60 x339  = -90
 c114: - x151 + x153 - 60 x340  = -30
 c115: - x14 - x22 - x34 + x154 + x159 - 60 x341  = -74
 c116: - x15 - x22 - x34 + x155 + x159 - 60 x342  = -75
 c117: x156 - x159 + x197 - 60 x343  = -1
 c118: x157 - x159 + x169 + x174 + x192 - 60 x344  = -22
 c119: x158 - x159 + x174 + x192 - 60 x345  = -53
 c120: - x159 + x162 - 60 x346  = -30
 c121: x34 - x35 - x159 + x163 - 60 x347  = -90
 c122: - x159 + x164 + x197 - 60 x348  = -15
 c123: x32 - x34 + x159 - x161 + x165 + x212 - 60 x349  = -75
 c124: x159 - x161 + x166 - x197 - 60 x350  = -110
 c125: x2 + x4 + x5 + x14 + x22 + x34 - x159 + x161 + x167 - 60 x351  = -31
 c126: - x160 + x161 + x168 - 60 x352  = -3
 c127: x32 - x34 + x170 + x174 + x192 - x205 - 60 x353  = -97
 c128: - x169 + x171 - 60 x354  = -30
 c129: x32 - x34 + x172 + x174 + x192 - x202 - 60 x355  = -67
 c130: x173 + x174 + x192 - x197 - 60 x356  = -53
 c131: - x174 + x176 + x191 - x192 - 60 x357  = -45
 c132: - x174 + x177 - x180 - 60 x358  = -72
 c133: - x175 + x178 - 60 x359  = -30
 c134: - x174 + x175 + x179 - x180 - 60 x360  = -73
 c135: x180 + x181 - x186 - 60 x361  = -3
 c136: x180 + x182 + x191 - x192 - 60 x362  = 26
 c137: x180 + x183 - 60 x363  = 56
 c138: x34 - x35 + x180 + x184 - x192 - 60 x364  = -33
 c139: x185 - x186 - x191 + x192 - 60 x365  = -30
 c140: - x169 - x174 - x186 + x187 - 60 x366  = -133
 c141: x186 + x188 - x193 - 60 x367  = 0
 c142: x189 + x191 - x192 - 60 x368  = 29
 c143: - x174 + x175 + x190 + x191 - x192 - 60 x369  = -46
 c144: - x169 - x175 + x195 - 60 x370  = -59
 c145: - x15 - x22 - x34 + x196 + x197 - 60 x371  = -82
 c146: x34 - x35 - x197 + x198 - 60 x372  = -90
 c147: x159 - x160 - x197 + x199 - 60 x373  = -110
 c148: x200 + x202 - x205 - 60 x374  = -3
 c149: x32 - x33 + x201 - x202 - 60 x375  = -68
 c150: x32 - x34 + x192 - x193 - x202 + x203 - 60 x376  = -134
 c151: x32 - x33 + x204 - x205 - 60 x377  = -68
 c152: - x54 - x56 + x206 - 60 x378  = -59
 c153: x35 - x40 + x207 - 60 x379  = 27
 c154: - x34 + x35 + x208 - 60 x380  = -33
 c155: - x34 + x35 + x209 - 60 x381  = -3
 c156: - x23 - x33 + x210 - 60 x382  = -58
 c157: - x33 + x37 + x211 - 60 x383  = -34
 c158: x23 - x28 + x213 - 60 x384  = 0
 c159: - x29 - x37 + x214 - 60 x385  = -84
 c160: - x23 - x37 + x215 - 60 x386  = -87
 c161: - x16 + x19 + x216 - 60 x387  = -3
 c162: x19 + x22 + x32 + x212 + x217 - 60 x388  = 59
 c163: - x19 - x22 + x29 + x218 - 60 x389  = -5
 c164: x16 + x22 + x32 + x212 + x219 - 60 x390  = 29
 c165: x16 + x22 + x32 + x212 + x220 - 60 x391  = 59
 c166: - x14 - x22 - x34 + x192 - x194 + x221 - 60 x392  = -168
 c167: x193 - x194 + x222 - 60 x393  = -50
 c168: - x193 + x194 + x223 - 60 x394  = -1
 c169: - x193 + x194 + x224 - 60 x395  = -16
 c170: - x14 - x22 - x34 + x192 - x193 + x225 - 60 x396  = -119
 c171: x159 - x160 - x192 + x193 + x226 - 60 x397  = -15
 c172: - 30 x28 - 30 x30 <= -900
 c173: - 30 x50 - 30 x51 <= -900
 c174: - 31 x136 - 29 x140 <= -899
 c175: - 30 x52 - 30 x53 <= -900
 c176: - 30 x42 - 30 x44 <= -900
 c177: - 22 x94 - 22 x103 <= -836
 c178: - 31 x110 - 29 x111 <= -899
 c179: - 30 x109 - 30 x111 <= -900
 c180: - 31 x14 - 29 x18 - 29 x154 - 31 x155 <= -899
 c181: - 30 x13 - 30 x22 - 30 x31 <= -900
 c182: - 30 x29 - 30 x31 <= -900
 c183: - 30 x15 - 30 x18 <= -900
 c184: - 30 x64 - 30 x65 <= -900
 c185: - 50 x138 - 50 x141 - 50 x142 - 50 x144 - 50 x145 - 50 x213 <= -500
 c186: - 30 x91 - 30 x92 <= -900
 c187: - 30 x159 - 30 x162 <= -900
 c188: - 30 x135 - 30 x140 <= -900
 c189: - 10 x80 - 10 x89 - 10 x130 - 10 x131 - 10 x146 - 10 x196 <= -500
 c190: - 8 x173 - 8 x177 - 8 x184 - 52 x198 <= -416
 c191: - 30 x57 - 30 x59 - 30 x85 - 30 x86 <= -900
 c192: - 6 x111 - 6 x114 <= -324
 c193: - 5 x91 - 5 x99 <= -275
 c194: - 5 x93 - 5 x102 <= -275
 c195: - 50 x193 - 10 x194 - 50 x222 <= -500
 c196: - 8 x158 - 52 x163 - 8 x177 - 8 x184 <= -416
 c197: - 39 x1 - 39 x4 - 39 x5 - 39 x154 - 39 x157 - 39 x187 - 39 x188
       - 39 x226 <= -819
 c198: - 6 x66 - 54 x67 - 6 x202 <= -324
 c199: x59 - x63 + x202 <= 0
 c200: - 6 x222 - 6 x224 <= -324
 c201: - 28 x47 - 32 x49 - 32 x91 - 28 x93 - 32 x207 <= -896
 c202: - 28 x138 - 28 x141 - 28 x143 - 28 x213 <= -896
 c203: - x138 - x141 - x143 - x213 <= -32
 c204: - 30 x25 - 30 x27 <= -900
 c205: - 37 x81 - 37 x89 - 37 x127 - 37 x129 - 37 x130 - 37 x214 <= -851
 c206: - 30 x151 - 30 x153 <= -900
 c207: - 43 x47 - 17 x48 - 43 x174 - 17 x177 - 17 x184 - 43 x192 - 17 x207
       <= -731
 c208: x40 - x44 + x49 <= 2
 c209: - x88 + x89 + x224 <= 46
 c210: - 22 x47 - 22 x52 - 22 x57 - 22 x170 - 22 x176 - 22 x191 <= -836
 c211: - 24 x47 - 24 x53 - 24 x60 - 24 x68 - 24 x71 - 24 x190 - 24 x191 <= -864
 c212: - 20 x30 - 20 x32 - 20 x140 - 20 x141 - 20 x142 - 20 x144 - 20 x145
       <= -800
 c213: - x93 + x96 - x152 <= 0
 c214: - x293 + x295 - x339 <= -1
 c215: - 35 x157 - 25 x158 - 35 x172 - 35 x187 - 35 x188 - 25 x203 <= -875
 c216: - 35 x172 - 25 x173 - 35 x199 - 25 x203 - 25 x226 <= -875
 c217: - 37 x112 - 37 x115 - 37 x123 - 37 x124 - 37 x146 - 37 x196 <= -851
 c218: x114 - x115 - x121 + x212 <= 1
 c219: - 30 x24 - 30 x31 - 30 x214 <= -900
 c220: - 32 x66 - 28 x68 - 28 x72 - 32 x86 <= -896
 c221: x36 - x43 + x47 <= 0
 c222: x245 - x249 + x253 <= 0
 c223: x36 - x44 + x47 <= 1
 c224: x43 - x44 <= 1
 c225: - 8 x16 - 8 x22 - 8 x36 - 8 x47 - 8 x50 - 8 x132 - 8 x134 <= -416
 c226: - x16 - x22 - x36 - x47 - x50 - x132 - x134 <= -52
 c227: x26 - x30 + x213 <= 0
 c228: - 7 x118 - 7 x120 - 53 x134 <= -371
 c229: - 5 x92 - 5 x100 <= -275
 c230: - 4 x78 - 4 x88 - 56 x203 <= -224
 c231: - x92 - x100 <= -55
 c232: - 8 x55 - 8 x63 - 8 x107 - 8 x108 - 8 x212 - 8 x217 <= -416
 c233: - x55 - x63 - x107 - x108 - x212 - x217 <= -52
 c234: - x260 - x266 - x305 - x306 - x388 <= -4
 c235: - 10 x95 - 10 x104 - 10 x107 - 10 x212 - 10 x217 <= -500
 c236: - x95 - x104 - x107 - x212 - x217 <= -50
 c237: - 48 x107 - 48 x108 - 48 x132 - 48 x134 - 48 x206 - 48 x216 <= -576
 c238: - 6 x31 - 6 x37 - 54 x214 <= -324
 c239: - 20 x45 - 20 x51 - 20 x107 - 20 x108 - 20 x132 - 20 x134 - 20 x216
       <= -800
 c240: - x31 - x37 + x214 <= -54
 c241: - x45 - x51 - x107 - x108 - x132 - x134 - x216 <= -40
 c242: - 29 x157 - 31 x158 - 29 x169 <= -899
 c243: - 30 x97 - 30 x104 <= -900
 c244: - 10 x113 - 10 x115 - 10 x123 - 10 x126 - 10 x129 - 10 x214 <= -500
 c245: - 22 x84 - 22 x89 - 22 x91 - 22 x192 - 38 x194 <= -836
 c246: - 18 x81 - 42 x87 - 42 x211 <= -756
 c247: - 55 x59 - 5 x61 - 5 x66 <= -275
 c248: - 8 x54 - 8 x57 - 8 x107 - 8 x108 - 8 x205 - 8 x212 - 8 x217 <= -416
 c249: - 12 x65 - 12 x68 - 12 x71 - 12 x179 - 12 x184 - 12 x207 <= -576
 c250: - 7 x54 - 7 x60 - 7 x67 - 7 x107 - 7 x108 - 7 x212 - 7 x217 <= -371
 c251: - 8 x16 - 8 x22 - 8 x41 - 8 x51 - 8 x132 - 8 x134 <= -416
 c252: - 9 x78 - 9 x89 - 51 x172 - 51 x174 - 51 x194 <= -459
 c253: - 5 x7 - 5 x8 - 5 x12 - 5 x22 - 5 x32 - 5 x165 - 5 x167 - 5 x212 <= -275
 c254: - 7 x16 - 7 x22 - 7 x40 - 7 x48 - 7 x51 - 7 x132 - 7 x134 <= -371
 c255: - 3 x111 - 3 x117 - 57 x140 <= -171
 c256: - 22 x31 - 22 x39 - 22 x87 - 22 x89 - 22 x127 - 22 x129 - 22 x130
       <= -836
 c257: - x105 + x106 + x117 <= 57
 c258: - 33 x90 - 33 x104 - 33 x140 - 33 x141 - 33 x142 - 33 x144 - 33 x145
       - 33 x213 <= -891
 c259: x5 - x6 - x8 + x9 <= -7
 c260: - x230 + x231 <= 0
 c261: - x1 - x4 - x5 - x88 + x89 - x221 - x226 <= -20
 c262: - x227 - x288 + x289 - x392 - x397 <= -4
 c263: - x104 + x105 - x140 <= 3
 c264: - x302 + x303 - x331 <= 0
 c265: - 9 x96 - 9 x104 - 51 x137 - 9 x140 <= -459
 c266: - 38 x146 - 38 x153 - 22 x173 - 22 x174 - 22 x192 <= -836
 c267: x61 - x63 + x67 <= 1
 c268: x265 - x266 <= 0
 c269: - 35 x111 - 25 x112 - 35 x137 - 25 x140 <= -875
 c270: - 32 x79 - 28 x81 - 28 x215 <= -896
 c271: - 8 x87 - 8 x88 - 8 x201 - 52 x203 <= -416
 c272: - 4 x81 - 56 x87 - 4 x133 - 4 x134 - 4 x214 - 4 x216 - 4 x218 <= -224
 c273: - 22 x11 - 38 x12 - 38 x22 - 22 x31 - 38 x81 - 38 x89 - 38 x214 <= -836
 c274: x183 - x184 + x192 - x209 <= 32
 c275: x363 - x364 - x381 <= -1
 c276: - 15 x1 - 15 x4 - 15 x5 - 45 x31 - 45 x40 - 15 x81 - 15 x88 - 15 x154
       - 15 x158 - 15 x177 - 15 x184 - 15 x207 - 15 x214 - 15 x226 <= -675
 c277: - 16 x31 - 16 x43 - 16 x51 - 16 x132 - 16 x134 - 16 x216 - 16 x218
       <= -704
 c278: - x31 - x43 - x51 - x132 - x134 - x216 - x218 <= -44
 c279: - 12 x17 - 12 x22 - 12 x40 - 12 x64 - 12 x67 - 12 x212 <= -576
 c280: - x21 + x22 + x37 - x214 <= 2
 c281: - 30 x60 - 30 x61 <= -900
 c282: - 29 x55 - 29 x57 - 29 x107 - 29 x108 - 31 x118 - 31 x123 - 31 x124
       - 29 x134 - 29 x170 - 31 x173 - 31 x196 - 29 x216 <= -899
 c283: - 32 x1 - 32 x4 - 32 x5 - 32 x87 - 32 x88 - 32 x147 - 32 x150 - 32 x154
       - 32 x226 <= -896
 c284: - 34 x1 - 34 x4 - 34 x5 - 34 x154 - 34 x162 - 26 x192 - 34 x193
       - 34 x226 <= -884
 c285: - x146 - x152 + x198 <= 1
 c286: - x334 - x339 + x372 <= 0
 c287: - 19 x55 - 19 x56 - 19 x107 - 19 x108 - 19 x132 - 19 x134 - 19 x216
       <= -779
 c288: - 48 x174 - 12 x177 - 48 x180 <= -576
 c289: - x180 - x184 + x192 - x208 <= -54
 c290: - x364 - x380 <= -2
 c291: - 22 x47 - 22 x53 - 22 x59 - 22 x71 - 38 x76 - 22 x86 - 22 x190
       - 22 x191 <= -836
 c292: - 14 x30 - 14 x40 - 14 x65 - 14 x67 - 46 x138 - 14 x140 - 46 x213
       <= -644
 c293: - 30 x77 - 30 x78 - 30 x170 - 30 x172 <= -900
 c294: - x10 + x11 + x224 <= 55
 c295: - x232 + x233 + x395 <= 1
 c296: - x9 - x10 + x225 <= 3
 c297: - x231 - x232 + x396 <= 0
 c298: - 11 x27 - 11 x39 - 49 x79 - 11 x87 <= -539
 c299: - 30 x23 - 30 x26 <= -900
 c300: - 31 x25 - 29 x26 <= -899
 c301: - 34 x91 - 34 x104 - 34 x170 - 34 x174 - 34 x192 - 26 x205 <= -884
 c302: - 25 x30 - 25 x40 - 25 x140 - 25 x141 - 25 x142 - 25 x144 - 25 x145
       - 35 x170 - 35 x177 - 35 x184 - 25 x205 - 35 x207 <= -875
 c303: - 30 x54 - 30 x55 <= -900
 c304: x146 - x147 - x155 + x196 <= -5
 c305: - 4 x72 - 56 x75 - 4 x88 <= -224
 c306: - 32 x137 - 28 x138 - 28 x148 <= -896
 c307: - x170 + x172 + x200 <= 27
 c308: - x353 + x355 + x374 <= 0
 c309: - 14 x94 - 14 x104 - 14 x140 - 14 x141 - 14 x142 - 14 x144 - 14 x145
       - 14 x210 - 14 x213 <= -644
 c310: - 20 x67 - 40 x68 - 40 x76 - 20 x87 - 20 x103 - 40 x104 <= -800
 c311: - 18 x47 - 18 x51 - 18 x81 - 18 x89 - 18 x118 - 18 x123 - 18 x126
       - 18 x129 - 18 x132 - 18 x192 - 42 x194 - 18 x214 <= -756
 c312: - x175 - 59 x177 - x179 <= -59
 c313: - 12 x72 - 48 x75 - 12 x89 - 48 x222 <= -576
 c314: - x104 + x106 - x111 <= 3
 c315: - x302 + x304 - x308 <= 0
 c316: x80 - x81 - x149 <= 3
 c317: x280 - x281 - x337 <= -1
 c318: - 6 x70 - 6 x76 - 6 x88 - 54 x203 <= -324
 c319: - 11 x20 - 11 x22 - 11 x43 - 11 x51 - 11 x132 - 11 x134 - 11 x216
       <= -539
 c320: - 10 x93 - 10 x106 - 10 x115 - 10 x123 - 10 x124 - 10 x155 - 10 x163
       <= -500
 c321: - x20 - x22 - x43 - x51 - x132 - x134 - x216 <= -49
 c322: - 35 x47 - 35 x51 - 25 x67 - 35 x68 - 35 x71 - 25 x111 - 25 x115
       - 35 x118 - 35 x132 - 35 x190 - 35 x191 <= -875
 c323: - 11 x55 - 11 x62 - 11 x107 - 11 x108 - 11 x212 - 11 x216 - 11 x219
       <= -539
 c324: - x55 - x62 - x107 - x108 - x212 - x216 - x219 <= -49
 c325: - 16 x47 - 16 x53 - 16 x59 - 16 x78 - 16 x89 - 16 x192 - 44 x194 <= -704
 c326: - 5 x73 - 55 x76 - 5 x87 <= -275
 c327: - x216 + x217 - x220 <= 3
 c328: - x387 + x388 - x391 <= 0
 c329: - 15 x158 - 45 x160 - 45 x172 - 15 x203 - 15 x226 <= -675
 c330: - x160 + x164 + x199 <= 55
 c331: x348 + x373 <= 3
 c332: - 20 x58 - 40 x59 - 20 x118 - 20 x123 - 20 x124 - 20 x132 - 40 x172
       - 20 x173 - 20 x196 <= -800
 c333: - 17 x1 - 17 x4 - 17 x5 - 17 x18 - 17 x22 - 17 x40 - 17 x64 - 17 x68
       - 17 x76 - 17 x88 - 17 x154 - 17 x156 - 43 x196 - 17 x226 <= -731
 c334: x1 - x3 - x167 + x168 <= -6
 c335: x227 - x228 - x351 + x352 <= 0
 c336: - 32 x79 - 28 x82 - 28 x138 <= -896
 c337: - 15 x65 - 15 x66 - 15 x172 - 15 x177 - 15 x184 - 15 x207 <= -675
 c338: - 25 x86 - 35 x87 - 25 x170 - 35 x172 - 35 x204 <= -875
 c339: - 18 x1 - 18 x4 - 18 x5 - 18 x18 - 18 x22 - 18 x40 - 18 x64 - 18 x68
       - 18 x76 - 18 x88 - 42 x146 - 18 x147 - 18 x154 - 42 x196 - 18 x226
       <= -756
 c340: - 21 x81 - 21 x89 - 21 x122 - 39 x123 - 39 x125 - 21 x130 - 21 x214
       <= -819
 c341: - 34 x67 - 26 x68 - 26 x72 - 26 x88 - 34 x165 - 26 x166 - 26 x172
       - 34 x173 - 34 x203 - 34 x212 <= -884
 c342: - 26 x1 - 26 x4 - 26 x5 - 26 x9 - 26 x12 - 26 x22 - 26 x40 - 26 x64
       - 26 x68 - 26 x72 - 26 x88 - 26 x226 <= -884
 c343: - 45 x155 - 45 x163 - 15 x173 - 15 x177 - 15 x184 - 15 x196 <= -675
 c344: - 33 x147 - 33 x153 - 27 x159 <= -891
 c345: x82 - x87 + x139 <= 59
 c346: x282 - x287 + x330 <= 1
 c347: - 30 x67 - 30 x68 - 30 x69 - 30 x205 <= -900
 c348: - 15 x13 - 15 x22 - 15 x39 - 45 x81 - 15 x87 - 45 x214 <= -675
 c349: - 30 x66 - 30 x68 - 30 x76 - 30 x88 - 30 x203 <= -900
 c350: - 30 x169 - 30 x171 <= -900
 c351: - 17 x47 - 17 x51 - 17 x71 - 43 x72 - 17 x83 - 43 x115 - 17 x118
       - 17 x132 - 17 x190 - 17 x191 <= -731
 c352: - 19 x93 - 19 x104 - 19 x157 - 41 x161 - 19 x165 - 19 x171 - 19 x177
       - 19 x184 - 19 x212 <= -779
 c353: - 17 x38 - 43 x44 - 17 x47 - 17 x71 - 43 x72 - 17 x87 - 17 x190
       - 17 x191 <= -731
 c354: - 41 x122 - 19 x123 - 19 x126 - 19 x129 <= -779
 c355: - x72 + x76 <= 1
 c356: - x274 + x277 <= 0
 c357: - x166 - x168 + x199 <= 3
 c358: - 33 x91 - 27 x93 - 33 x209 <= -891
 c359: - x350 - x352 + x373 <= 0
 c360: - 25 x115 - 35 x116 - 25 x122 - 25 x211 - 25 x214 <= -875
 c361: x84 - x87 - x101 <= 6
 c362: x46 + x53 - x54 <= 58
 c363: x284 - x287 - x299 <= -1
 c364: x252 + x259 <= 4
 c365: - 31 x77 - 29 x86 - 29 x170 - 31 x172 <= -899
 c366: - x181 + x183 + x186 <= 59
 c367: x35 - x36 + x208 <= 57
 c368: - x36 + x40 - x207 + x208 <= 30
 c369: - x361 + x363 <= 0
 c370: - x245 + x380 <= 1
 c371: - 30 x175 - 30 x178 <= -900
Bounds
 0 <= x1 <= 4
 0 <= x2 <= 54
 0 <= x3 <= 54
 0 <= x4 <= 59
 0 <= x5 <= 4
 0 <= x6 <= 54
 0 <= x7 <= 59
 0 <= x8 <= 4
 0 <= x9 <= 48
 0 <= x10 <= 58
 0 <= x11 <= 58
 0 <= x12 <= 4
 0 <= x13 <= 52
 0 <= x14 <= 59
 0 <= x15 <= 59
 0 <= x16 <= 59
 0 <= x17 <= 59
 0 <= x18 <= 59
 0 <= x19 <= 54
 0 <= x20 <= 54
 0 <= x21 <= 52
 0 <= x22 <= 4
 0 <= x23 <= 54
 0 <= x24 <= 54
 0 <= x25 <= 59
 0 <= x26 <= 54
 0 <= x27 <= 59
 0 <= x28 <= 59
 0 <= x29 <= 59
 0 <= x30 <= 59
 0 <= x31 <= 59
 0 <= x32 <= 59
 0 <= x33 <= 54
 0 <= x34 <= 51
 0 <= x35 <= 51
 0 <= x36 <= 51
 0 <= x37 <= 54
 0 <= x38 <= 54
 0 <= x39 <= 59
 0 <= x40 <= 6
 0 <= x41 <= 54
 0 <= x42 <= 54
 0 <= x43 <= 54
 0 <= x44 <= 54
 0 <= x45 <= 57
 0 <= x46 <= 57
 0 <= x47 <= 6
 0 <= x48 <= 54
 0 <= x49 <= 54
 0 <= x50 <= 59
 0 <= x51 <= 59
 0 <= x52 <= 59
 0 <= x53 <= 59
 0 <= x54 <= 59
 0 <= x55 <= 59
 0 <= x56 <= 58
 0 <= x57 <= 6
 0 <= x58 <= 58
 0 <= x59 <= 6
 0 <= x60 <= 54
 0 <= x61 <= 54
 0 <= x62 <= 54
 0 <= x63 <= 54
 0 <= x64 <= 59
 0 <= x65 <= 59
 0 <= x66 <= 59
 0 <= x67 <= 6
 0 <= x68 <= 6
 0 <= x69 <= 54
 0 <= x70 <= 54
 0 <= x71 <= 4
 0 <= x72 <= 59
 0 <= x73 <= 52
 0 <= x74 <= 51
 0 <= x75 <= 59
 0 <= x76 <= 54
 0 <= x77 <= 59
 0 <= x78 <= 59
 0 <= x79 <= 59
 0 <= x80 <= 59
 0 <= x81 <= 59
 0 <= x82 <= 54
 0 <= x83 <= 54
 0 <= x84 <= 54
 0 <= x85 <= 54
 0 <= x86 <= 54
 0 <= x87 <= 52
 0 <= x88 <= 59
 0 <= x89 <= 4
 0 <= x90 <= 53
 0 <= x91 <= 59
 0 <= x92 <= 59
 0 <= x93 <= 59
 0 <= x94 <= 59
 0 <= x95 <= 50
 0 <= x96 <= 52
 0 <= x97 <= 54
 0 <= x98 <= 53
 0 <= x99 <= 52
 0 <= x100 <= 52
 0 <= x101 <= 53
 0 <= x102 <= 52
 0 <= x103 <= 59
 0 <= x104 <= 54
 0 <= x105 <= 54
 0 <= x106 <= 54
 0 <= x107 <= 4
 0 <= x108 <= 5
 0 <= x109 <= 54
 0 <= x110 <= 59
 0 <= x111 <= 59
 0 <= x112 <= 59
 0 <= x113 <= 59
 0 <= x114 <= 54
 0 <= x115 <= 4
 0 <= x116 <= 54
 0 <= x117 <= 54
 0 <= x118 <= 59
 0 <= x119 <= 53
 0 <= x120 <= 53
 0 <= x121 <= 53
 0 <= x122 <= 56
 0 <= x123 <= 4
 0 <= x124 <= 59
 0 <= x125 <= 54
 0 <= x126 <= 39
 0 <= x127 <= 59
 0 <= x128 <= 54
 0 <= x129 <= 4
 0 <= x130 <= 4
 0 <= x131 <= 59
 0 <= x132 <= 5
 0 <= x133 <= 51
 0 <= x134 <= 4
 0 <= x135 <= 54
 0 <= x136 <= 59
 0 <= x137 <= 59
 0 <= x138 <= 59
 0 <= x139 <= 54
 0 <= x140 <= 54
 0 <= x141 <= 4
 0 <= x142 <= 4
 0 <= x143 <= 56
 0 <= x144 <= 59
 0 <= x145 <= 4
 0 <= x146 <= 4
 0 <= x147 <= 59
 0 <= x148 <= 54
 0 <= x149 <= 54
 0 <= x150 <= 54
 0 <= x151 <= 54
 0 <= x152 <= 54
 0 <= x153 <= 54
 0 <= x154 <= 4
 0 <= x155 <= 59
 0 <= x156 <= 58
 0 <= x157 <= 4
 0 <= x158 <= 59
 0 <= x159 <= 59
 0 <= x160 <= 58
 0 <= x161 <= 58
 0 <= x162 <= 59
 0 <= x163 <= 59
 0 <= x164 <= 52
 0 <= x165 <= 4
 0 <= x166 <= 58
 0 <= x167 <= 4
 0 <= x168 <= 49
 0 <= x169 <= 58
 0 <= x170 <= 4
 0 <= x171 <= 58
 0 <= x172 <= 4
 0 <= x173 <= 59
 0 <= x174 <= 59
 0 <= x175 <= 58
 0 <= x176 <= 59
 0 <= x177 <= 59
 0 <= x178 <= 58
 0 <= x179 <= 59
 0 <= x180 <= 59
 0 <= x181 <= 57
 0 <= x182 <= 58
 0 <= x183 <= 58
 0 <= x184 <= 4
 0 <= x185 <= 57
 0 <= x186 <= 57
 0 <= x187 <= 59
 0 <= x188 <= 4
 0 <= x189 <= 58
 0 <= x190 <= 59
 0 <= x191 <= 4
 0 <= x192 <= 4
 0 <= x193 <= 59
 0 <= x194 <= 59
 0 <= x195 <= 58
 0 <= x196 <= 4
 0 <= x197 <= 59
 0 <= x198 <= 59
 0 <= x199 <= 58
 0 <= x200 <= 54
 0 <= x201 <= 52
 0 <= x202 <= 51
 0 <= x203 <= 59
 0 <= x204 <= 52
 0 <= x205 <= 51
 0 <= x206 <= 59
 0 <= x207 <= 6
 0 <= x208 <= 54
 0 <= x209 <= 54
 0 <= x210 <= 53
 0 <= x211 <= 53
 0 <= x212 <= 4
 0 <= x213 <= 4
 0 <= x214 <= 4
 0 <= x215 <= 54
 0 <= x216 <= 59
 0 <= x217 <= 59
 0 <= x218 <= 52
 0 <= x219 <= 54
 0 <= x220 <= 54
 0 <= x221 <= 58
 0 <= x222 <= 59
 0 <= x223 <= 58
 0 <= x224 <= 52
 0 <= x225 <= 58
 0 <= x226 <= 4
 0 <= x227 <= 4
      x228 = 0
 0 <= x229 <= 2
 0 <= x230 <= 1
 0 <= x231 <= 1
 0 <= x232 <= 2
 0 <= x233 <= 2
      x234 = 0
 0 <= x235 <= 2
 0 <= x236 <= 1
 0 <= x237 <= 1
 0 <= x238 <= 1
 0 <= x239 <= 1
 0 <= x240 <= 1
 0 <= x241 <= 1
 0 <= x242 <= 1
 0 <= x243 <= 1
 0 <= x244 <= 1
 0 <= x245 <= 1
 0 <= x246 <= 1
 0 <= x247 <= 1
      x248 = 0
 0 <= x249 <= 1
 0 <= x250 <= 1
 0 <= x251 <= 3
 0 <= x252 <= 4
      x253 = 0
      x254 = 0
 0 <= x255 <= 1
 0 <= x256 <= 3
 0 <= x257 <= 4
 0 <= x258 <= 2
 0 <= x259 <= 3
 0 <= x260 <= 1
      x261 = 0
 0 <= x262 <= 1
 0 <= x263 <= 1
      x264 = 0
 0 <= x265 <= 1
 0 <= x266 <= 1
 0 <= x267 <= 1
 0 <= x268 <= 1
 0 <= x269 <= 1
      x270 = 0
 0 <= x271 <= 1
 0 <= x272 <= 1
 0 <= x273 <= 4
 0 <= x274 <= 2
 0 <= x275 <= 2
 0 <= x276 <= 4
 0 <= x277 <= 2
 0 <= x278 <= 2
 0 <= x279 <= 4
 0 <= x280 <= 5
 0 <= x281 <= 4
 0 <= x282 <= 3
 0 <= x283 <= 3
 0 <= x284 <= 3
 0 <= x285 <= 1
 0 <= x286 <= 2
 0 <= x287 <= 4
 0 <= x288 <= 5
 0 <= x289 <= 4
 0 <= x290 <= 3
 0 <= x291 <= 3
 0 <= x292 <= 3
 0 <= x293 <= 3
 0 <= x294 <= 3
 0 <= x295 <= 4
 0 <= x296 <= 3
 0 <= x297 <= 3
 0 <= x298 <= 2
 0 <= x299 <= 2
 0 <= x300 <= 2
 0 <= x301 <= 3
 0 <= x302 <= 1
 0 <= x303 <= 1
 0 <= x304 <= 1
 0 <= x305 <= 3
 0 <= x306 <= 3
 0 <= x307 <= 1
 0 <= x308 <= 1
 0 <= x309 <= 4
 0 <= x310 <= 2
 0 <= x311 <= 1
      x312 = 0
 0 <= x313 <= 3
 0 <= x314 <= 1
 0 <= x315 <= 2
 0 <= x316 <= 1
 0 <= x317 <= 3
 0 <= x318 <= 3
 0 <= x319 <= 1
 0 <= x320 <= 1
 0 <= x321 <= 1
 0 <= x322 <= 2
 0 <= x323 <= 3
 0 <= x324 <= 3
 0 <= x325 <= 4
 0 <= x326 <= 4
 0 <= x327 <= 1
 0 <= x328 <= 4
 0 <= x329 <= 3
 0 <= x330 <= 3
 0 <= x331 <= 1
 0 <= x332 <= 3
 0 <= x333 <= 1
      x334 = 0
 0 <= x335 <= 1
 0 <= x336 <= 2
 0 <= x337 <= 3
 0 <= x338 <= 2
 0 <= x339 <= 3
 0 <= x340 <= 1
 0 <= x341 <= 2
 0 <= x342 <= 3
 0 <= x343 <= 1
 0 <= x344 <= 2
 0 <= x345 <= 2
 0 <= x346 <= 1
 0 <= x347 <= 3
 0 <= x348 <= 2
 0 <= x349 <= 3
 0 <= x350 <= 3
 0 <= x351 <= 5
 0 <= x352 <= 1
 0 <= x353 <= 3
 0 <= x354 <= 1
 0 <= x355 <= 3
 0 <= x356 <= 2
 0 <= x357 <= 1
 0 <= x358 <= 2
 0 <= x359 <= 1
 0 <= x360 <= 3
 0 <= x361 <= 1
 0 <= x362 <= 1
 0 <= x363 <= 1
 0 <= x364 <= 2
 0 <= x365 <= 1
 0 <= x366 <= 3
 0 <= x367 <= 1
      x368 = 0
 0 <= x369 <= 2
 0 <= x370 <= 1
 0 <= x371 <= 2
 0 <= x372 <= 3
 0 <= x373 <= 3
 0 <= x374 <= 1
 0 <= x375 <= 2
 0 <= x376 <= 4
 0 <= x377 <= 2
 0 <= x378 <= 1
      x379 = 0
 0 <= x380 <= 2
 0 <= x381 <= 1
 0 <= x382 <= 1
 0 <= x383 <= 2
      x384 = 0
 0 <= x385 <= 1
 0 <= x386 <= 2
 0 <= x387 <= 1
 0 <= x388 <= 2
 0 <= x389 <= 1
 0 <= x390 <= 2
 0 <= x391 <= 2
 0 <= x392 <= 3
 0 <= x393 <= 2
 0 <= x394 <= 1
 0 <= x395 <= 2
 0 <= x396 <= 3
 0 <= x397 <= 2
Binaries
 x230  x231  x236  x237  x238  x239  x240  x241  x242  x243  x244  x245  x246 
 x247  x249  x250  x255  x260  x262  x263  x265  x266  x267  x268  x269  x271 
 x272  x285  x302  x303  x304  x307  x308  x311  x314  x316  x319  x320  x321 
 x327  x331  x333  x335  x340  x343  x346  x352  x354  x357  x359  x361  x362 
 x363  x365  x367  x370  x374  x378  x381  x382  x385  x387  x389  x394 
Generals
 x227  x228  x229  x232  x233  x234  x235  x248  x251  x252  x253  x254  x256 
 x257  x258  x259  x261  x264  x270  x273  x274  x275  x276  x277  x278  x279 
 x280  x281  x282  x283  x284  x286  x287  x288  x289  x290  x291  x292  x293 
 x294  x295  x296  x297  x298  x299  x300  x301  x305  x306  x309  x310  x312 
 x313  x315  x317  x318  x322  x323  x324  x325  x326  x328  x329  x330  x332 
 x334  x336  x337  x338  x339  x341  x342  x344  x345  x347  x348  x349  x350 
 x351  x353  x355  x356  x358  x360  x364  x366  x368  x369  x371  x372  x373 
 x375  x376  x377  x379  x380  x383  x384  x386  x388  x390  x391  x392  x393 
 x395  x396  x397 
End
